VACCINE = Vaccine(1..4);
m = 24;
age = [CHILD, ANCIENT, YOUTH, BABY, YOUTH, SENIOR, CHILD, ADULT, CHILD, CHILD, SENIOR, AGED, ANCIENT, ANCIENT, YOUTH, AGED, YOUTH, BABY, YOUTH, ANCIENT, ADULT, YOUTH, ADULT, BABY];
gender = [OTHER, FEMALE, FEMALE, FEMALE, MALE, FEMALE, MALE, OTHER, FEMALE, FEMALE, FEMALE, FEMALE, OTHER, OTHER, OTHER, MALE, MALE, OTHER, OTHER, OTHER, MALE, MALE, OTHER, MALE];
health = [POOR, GOOD, GOOD, POOR, COMPROMISED, GOOD, POOR, COMPROMISED, GOOD, POOR, POOR, COMPROMISED, COMPROMISED, COMPROMISED, COMPROMISED, POOR, GOOD, GOOD, POOR, POOR, COMPROMISED, GOOD, GOOD, GOOD];
exposure = [EXTREME, AVERAGE, AVERAGE, AVERAGE, AVERAGE, LOW, LOW, AVERAGE, AVERAGE, AVERAGE, LOW, EXTREME, LOW, HIGH, HIGH, LOW, EXTREME, AVERAGE, AVERAGE, HIGH, LOW, LOW, EXTREME, EXTREME];
size = [9, 9, 5, 9, 9, 4, 4, 8, 7, 7, 9, 8, 7, 6, 8, 4, 8, 6, 9, 7, 7, 8, 7, 4];
minsize = 4;
age_group_min = [1, 0, 1, 1, 0, 0, 1];
age_group_max = [13, 22, 20, 20, 15, 18, 24];
max_people_diff = 87;
max_share_vaccines = 3;
health_information = {9, 23, 24};
exposure_information = {6, 8, 10, 17};